\ LP format - for model browsing. Use MPS format to capture full model detail.
Minimize
  0 B39(0) + 0 B40(0) + 0 B41(0) + 0 B44(0) + 0 B47(0) + 0 B50(0) + 0 B53(0)
   + 0 B54(0) + 0 B55(0) + 0 B56(0) + 0 B59(0) + 0 B64(0) + 0 B68(0)
   + 0 B69(0) + 0 B70(0) + 0 B71(0) + 0 B72(0) + 0 B75(0) + 0 B78(0)
   + 0 B81(0) + 0 B84(0) + 0 B85(0) + 0 B86(0) + 0 B87(0) + 0 B88(0)
   + 0 B89(0) + 0 B92(0) + 0 B95(0) + 0 B98(0) + 0 B99(0) + 0 B100(0)
   + 0 B101(0) + 0 B102(0) + 0 B103(0) + 0 B104(0) + 0 B113(0) + 0 B114(0)
   + 0 B115(0) + 0 B116(0) + 0 B117(0) + 0 B118(0) + 0 B119(0) + 0 B120(0)
   + 0 B123(0) + 0 B126(0) + 0 B129(0) + 0 B130(0) + 0 B131(0) + 0 B132(0)
   + 0 B133(0) + 0 B134(0) + 0 B135(0) + 0 B136(0) + 0 B137(0) + 0 B139(0)
   + 0 B140(0) + 0 B142(0) + 0 B143(0) + 0 B144(0) + 0 B145(0) + 0 B146(0)
   + 0 B147(0) + 0 B148(0) + 0 B149(0) + 0 B150(0) + 0 B151(0) + 0 B152(0)
   + 0 B153(0) + 0 B158(0) + 0 B159(0) + 0 B160(0) + 0 B161(0) + 0 B162(0)
   + 0 B163(0) + 0 B164(0) + 0 B165(0) + 0 B166(0) + 0 B167(0) + 0 B168(0)
   + 0 B171(0) + 0 B174(0) + 0 B175(0) + 0 B176(0) + 0 B177(0) + 0 B178(0)
   + 0 B179(0) + 0 B180(0) + 0 B181(0) + 0 B182(0) + 0 B183(0) + 0 B184(0)
   + 0 B185(0) + 0 B187(0) + 0 B188(0) + 0 B189(0) + 0 B190(0) + 0 B191(0)
   + 0 B192(0) + 0 B193(0) + 0 B194(0) + 0 B195(0) + 0 B196(0) + 0 B197(0)
   + 0 B198(0) + 0 B199(0) + 0 B200(0) + 0 B204(0) + 0 B205(0) + 0 B206(0)
   + 0 B207(0) + 0 B208(0) + 0 B209(0) + 0 B210(0) + 0 B211(0) + 0 B212(0)
   + 0 B213(0) + 0 B214(0) + 0 B215(0) + 0 B216(0) + 0 B219(0) + 0 B220(0)
   + 0 B221(0) + 0 B222(0) + 0 B223(0) + 0 B224(0) + 0 B225(0) + 0 B226(0)
   + 0 B227(0) + 0 B228(0) + 0 B229(0) + 0 B230(0) + 0 B231(0) + 0 B232(0)
   + 0 B233(0) + 0 B234(0) + 0 B235(0) + 0 B236(0) + 0 B237(0) + 0 B238(0)
   + 0 B239(0) + 0 B240(0) + 0 B241(0) + 0 B242(0) + 0 B243(0) + 0 B244(0)
   + 0 B245(0) + 0 B246(0) + 0 B247(0) + 0 B248(0) + 0 B249(0) + 0 B250(0)
   + 0 B251(0) + 0 B252(0) + 0 B253(0) + 0 B254(0) + 0 B255(0) + 0 B256(0)
   + 0 B257(0) + 0 B258(0) + 0 B259(0) + 0 B260(0) + 0 B261(0) + 0 B262(0)
   + 0 B263(0) + I303(1)
Subject To
 c0: B0(15) + B1(15) + B2(19) = 1
 c1: B3(16) + B4(15) + B5(15) = 1
 c2: B6(15) + B7(14) + B8(8) = 1
 c3: B9(16) + B10(16) = 1
 c4: B11(16) + B12(15) + B13(17) = 1
 c5: B14(14) + B15(10) + B16(8) = 1
 c6: B17(15) + B18(15) = 1
 c7: B19(10) + B20(18) + B21(16) = 1
 c8: B22(15) + B23(14) + B24(10) = 1
 c9: B25(15) + B26(15) = 1
 c10: B27(17) + B28(15) = 1
 c11: B29(16) + B30(10) = 1
 c12: B31(16) + B32(16) + B33(16) = 1
 c13: B34(17) + B35(18) + B36(14) = 1
 c14: B37(13) + B38(10) = 1
 c15: - 1e+09 B0(15) + I264(16) <= 0
 c16: - 1e+09 B1(15) + I265(16) <= 0
 c17: - 1e+09 B2(19) + I266(20) <= 0
 c18: - 1e+09 B3(16) + I267(20) <= 0
 c19: - 1e+09 B4(15) + I268(18) <= 0
 c20: - 1e+09 B5(15) + I269(18) <= 0
 c21: - 1e+09 B6(15) + I270(18) <= 0
 c22: - 1e+09 B7(14) + I271(18) <= 0
 c23: - 1e+09 B8(8) + I272(12) <= 0
 c24: - 1e+09 B9(16) + I273(17) <= 0
 c25: - 1e+09 B10(16) + I274(17) <= 0
 c26: - 1e+09 B11(16) + I275(18) <= 0
 c27: - 1e+09 B12(15) + I276(18) <= 0
 c28: - 1e+09 B13(17) + I277(20) <= 0
 c29: - 1e+09 B14(14) + I278(17) <= 0
 c30: - 1e+09 B15(10) + I279(13) <= 0
 c31: - 1e+09 B16(8) + I280(11) <= 0
 c32: - 1e+09 B17(15) + I281(16) <= 0
 c33: - 1e+09 B18(15) + I282(16) <= 0
 c34: - 1e+09 B19(10) + I283(12) <= 0
 c35: - 1e+09 B20(18) + I284(20) <= 0
 c36: - 1e+09 B21(16) + I285(18) <= 0
 c37: - 1e+09 B22(15) + I286(18) <= 0
 c38: - 1e+09 B23(14) + I287(18) <= 0
 c39: - 1e+09 B24(10) + I288(14) <= 0
 c40: - 1e+09 B25(15) + I289(16) <= 0
 c41: - 1e+09 B26(15) + I290(16) <= 0
 c42: - 1e+09 B27(17) + I291(19) <= 0
 c43: - 1e+09 B28(15) + I292(17) <= 0
 c44: - 1e+09 B29(16) + I293(19) <= 0
 c45: - 1e+09 B30(10) + I294(13) <= 0
 c46: - 1e+09 B31(16) + I295(17) <= 0
 c47: - 1e+09 B32(16) + I296(17) <= 0
 c48: - 1e+09 B33(16) + I297(17) <= 0
 c49: - 1e+09 B34(17) + I298(19) <= 0
 c50: - 1e+09 B35(18) + I299(21) <= 0
 c51: - 1e+09 B36(14) + I300(17) <= 0
 c52: - 1e+09 B37(13) + I301(16) <= 0
 c53: - 1e+09 B38(10) + I302(14) <= 0
 c54: - 147 B0(15) - 123 B1(15) - 145 B2(19) - I264(16) - I265(16)
   - I266(20) + I267(20) + I268(18) + I269(18) >= 0
 c55: - 1.000000147e+09 B0(15) - 123 B1(15) - 145 B2(19) - 1e+09 B5(15)
   - I264(16) - I265(16) - I266(20) + I267(20) + I268(18) + I269(18)
   >= -1.999999984e+09
 c56: - 147 B0(15) - 1.000000123e+09 B1(15) - 145 B2(19) - 1e+09 B4(15)
   - I264(16) - I265(16) - I266(20) + I267(20) + I268(18) + I269(18)
   >= -1.99999999e+09
 c57: - 140 B3(16) - 130 B4(15) - 123 B5(15) - I267(20) - I268(18)
   - I269(18) + I270(18) + I271(18) + I272(12) >= 0
 c58: - 1.00000014e+09 B3(16) - 130 B4(15) - 123 B5(15) - 1e+09 B6(15)
   - I267(20) - I268(18) - I269(18) + I270(18) + I271(18) + I272(12)
   >= -1.999999991e+09
 c59: - 214 B9(16) - 150 B10(16) - I273(17) - I274(17) + I275(18)
   + I276(18) + I277(20) >= 0
 c60: - 214 B9(16) - 1.00000015e+09 B10(16) - 1e+09 B11(16) - I273(17)
   - I274(17) + I275(18) + I276(18) + I277(20) >= -1.999999987e+09
 c61: - 87 B11(16) - 66 B12(15) - 99 B13(17) - I275(18) - I276(18)
   - I277(20) + I278(17) + I279(13) + I280(11) >= 0
 c62: - 87 B17(15) - 62 B18(15) - I281(16) - I282(16) + I283(12) + I284(20)
   + I285(18) >= 0
 c63: - 145 B19(10) - 180 B20(18) - 105 B21(16) - I283(12) - I284(20)
   - I285(18) + I286(18) + I287(18) + I288(14) >= 0
 c64: - 145 B19(10) - 180 B20(18) - 1.000000105e+09 B21(16) - 1e+09 B22(15)
   - I283(12) - I284(20) - I285(18) + I286(18) + I287(18) + I288(14)
   >= -1.999999985e+09
 c65: - 87 B25(15) - 65 B26(15) - I289(16) - I290(16) + I291(19) + I292(17)
   >= 0
 c66: - 250 B27(17) - 173 B28(15) - I291(19) - I292(17) + I293(19)
   + I294(13) >= 0
 c67: - 123 B31(16) - 145 B32(16) - 128 B33(16) - I295(17) - I296(17)
   - I297(17) + I298(19) + I299(21) + I300(17) >= 0
 c68: - 123 B31(16) - 1.000000145e+09 B32(16) - 128 B33(16) - 1e+09 B34(17)
   - I295(17) - I296(17) - I297(17) + I298(19) + I299(21) + I300(17)
   >= -1.99999999e+09
 c69: - 86 B34(17) - 65 B35(18) - 47 B36(14) - I298(19) - I299(21)
   - I300(17) + I301(16) + I302(14) >= 0
 c70: - 86 B34(17) - 65 B35(18) - 1.000000047e+09 B36(14) - 1e+09 B37(13)
   - I298(19) - I299(21) - I300(17) + I301(16) + I302(14)
   >= -1.999999986e+09
 c71: - 1e+09 B0(15) - 1e+09 B9(16) - 1e+09 B42(4) + I264(16) - I273(17)
   >= -2.999999772e+09
 c72: - 1e+09 B0(15) - 1e+09 B9(16) + 1e+09 B42(4) - I264(16) + I273(17)
   >= -1.999999835e+09
 c73: - 1e+09 B2(19) - 1e+09 B10(16) - 1e+09 B42(4) + I266(20) - I274(17)
   >= -2.999999834e+09
 c74: - 1e+09 B2(19) - 1e+09 B10(16) + 1e+09 B42(4) - I266(20) + I274(17)
   >= -1.999999839e+09
 c75: - 1e+09 B1(15) - 1e+09 B12(15) - 1e+09 B43(4) + I265(16) - I276(18)
   >= -2.999999919e+09
 c76: - 1e+09 B1(15) - 1e+09 B12(15) + 1e+09 B43(4) - I265(16) + I276(18)
   >= -1.999999861e+09
 c77: - 1e+09 B2(19) - 1e+09 B11(16) - 1e+09 B43(4) + I266(20) - I275(18)
   >= -2.999999901e+09
 c78: - 1e+09 B2(19) - 1e+09 B11(16) + 1e+09 B43(4) - I266(20) + I275(18)
   >= -1.99999984e+09
 c79: - 1e+09 B0(15) - 1e+09 B17(15) - 1e+09 B45(4) + I264(16) - I281(16)
   >= -2.999999898e+09
 c80: - 1e+09 B0(15) - 1e+09 B17(15) + 1e+09 B45(4) - I264(16) + I281(16)
   >= -1.999999836e+09
 c81: - 1e+09 B1(15) - 1e+09 B18(15) - 1e+09 B45(4) + I265(16) - I282(16)
   >= -2.999999928e+09
 c82: - 1e+09 B1(15) - 1e+09 B18(15) + 1e+09 B45(4) - I265(16) + I282(16)
   >= -1.999999863e+09
 c83: - 1e+09 B2(19) - 1e+09 B20(18) - 1e+09 B46(2) + I266(20) - I284(20)
   >= -2.999999811e+09
 c84: - 1e+09 B2(19) - 1e+09 B20(18) + 1e+09 B46(2) - I266(20) + I284(20)
   >= -1.999999845e+09
 c85: - 1e+09 B0(15) - 1e+09 B25(15) - 1e+09 B48(4) + I264(16) - I289(16)
   >= -2.999999902e+09
 c86: - 1e+09 B0(15) - 1e+09 B25(15) + 1e+09 B48(4) - I264(16) + I289(16)
   >= -1.999999838e+09
 c87: - 1e+09 B1(15) - 1e+09 B26(15) - 1e+09 B48(4) + I265(16) - I290(16)
   >= -2.999999925e+09
 c88: - 1e+09 B1(15) - 1e+09 B26(15) + 1e+09 B48(4) - I265(16) + I290(16)
   >= -1.999999862e+09
 c89: - 1e+09 B2(19) - 1e+09 B27(17) - 1e+09 B49(2) + I266(20) - I291(19)
   >= -2.99999974e+09
 c90: - 1e+09 B2(19) - 1e+09 B27(17) + 1e+09 B49(2) - I266(20) + I291(19)
   >= -1.999999844e+09
 c91: - 1e+09 B0(15) - 1e+09 B33(16) - 1e+09 B51(6) + I264(16) - I297(17)
   >= -2.999999855e+09
 c92: - 1e+09 B0(15) - 1e+09 B33(16) + 1e+09 B51(6) - I264(16) + I297(17)
   >= -1.999999837e+09
 c93: - 1e+09 B1(15) - 1e+09 B31(16) - 1e+09 B51(6) + I265(16) - I295(17)
   >= -2.999999863e+09
 c94: - 1e+09 B1(15) - 1e+09 B31(16) + 1e+09 B51(6) - I265(16) + I295(17)
   >= -1.999999863e+09
 c95: - 1e+09 B2(19) - 1e+09 B32(16) - 1e+09 B51(6) + I266(20) - I296(17)
   >= -2.999999845e+09
 c96: - 1e+09 B2(19) - 1e+09 B32(16) + 1e+09 B51(6) - I266(20) + I296(17)
   >= -1.999999838e+09
 c97: - 1e+09 B2(19) - 1e+09 B34(17) - 1e+09 B52(2) + I266(20) - I298(19)
   >= -2.999999904e+09
 c98: - 1e+09 B2(19) - 1e+09 B34(17) + 1e+09 B52(2) - I266(20) + I298(19)
   >= -1.999999845e+09
 c99: - 1e+09 B5(15) - 1e+09 B9(16) - 1e+09 B57(2) + I269(18) - I273(17)
   >= -2.999999775e+09
 c100: - 1e+09 B5(15) - 1e+09 B9(16) + 1e+09 B57(2) - I269(18) + I273(17)
   >= -1.999999866e+09
 c101: - 1e+09 B4(15) - 1e+09 B12(15) - 1e+09 B58(4) + I268(18) - I276(18)
   >= -2.999999922e+09
 c102: - 1e+09 B4(15) - 1e+09 B12(15) + 1e+09 B58(4) - I268(18) + I276(18)
   >= -1.999999856e+09
 c103: - 1e+09 B3(16) - 1e+09 B13(17) - 1e+09 B58(4) + I267(20) - I277(20)
   >= -2.99999989e+09
 c104: - 1e+09 B3(16) - 1e+09 B13(17) + 1e+09 B58(4) - I267(20) + I277(20)
   >= -1.999999845e+09
 c105: - 1e+09 B5(15) - 1e+09 B17(15) - 1e+09 B60(4) + I269(18) - I281(16)
   >= -2.999999897e+09
 c106: - 1e+09 B5(15) - 1e+09 B17(15) + 1e+09 B60(4) - I269(18) + I281(16)
   >= -1.999999862e+09
 c107: - 1e+09 B4(15) - 1e+09 B18(15) - 1e+09 B60(4) + I268(18) - I282(16)
   >= -2.999999927e+09
 c108: - 1e+09 B4(15) - 1e+09 B18(15) + 1e+09 B60(4) - I268(18) + I282(16)
   >= -1.999999861e+09
 c109: - 1e+09 B3(16) - 1e+09 B21(16) - 1e+09 B61(2) + I267(20) - I285(18)
   >= -2.999999879e+09
 c110: - 1e+09 B3(16) - 1e+09 B21(16) + 1e+09 B61(2) - I267(20) + I285(18)
   >= -1.99999985e+09
 c111: - 1e+09 B3(16) - 1e+09 B22(15) - 1e+09 B62(2) + I267(20) - I286(18)
   >= -2.999999799e+09
 c112: - 1e+09 B3(16) - 1e+09 B22(15) + 1e+09 B62(2) - I267(20) + I286(18)
   >= -1.999999847e+09
 c113: - 1e+09 B5(15) - 1e+09 B25(15) - 1e+09 B63(4) + I269(18) - I289(16)
   >= -2.999999903e+09
 c114: - 1e+09 B5(15) - 1e+09 B25(15) + 1e+09 B63(4) - I269(18) + I289(16)
   >= -1.99999986e+09
 c115: - 1e+09 B4(15) - 1e+09 B26(15) - 1e+09 B63(4) + I268(18) - I290(16)
   >= -2.999999924e+09
 c116: - 1e+09 B4(15) - 1e+09 B26(15) + 1e+09 B63(4) - I268(18) + I290(16)
   >= -1.999999858e+09
 c117: - 1e+09 B3(16) - 1e+09 B29(16) - 1e+09 B65(2) + I267(20) - I293(19)
   >= -2.999999839e+09
 c118: - 1e+09 B3(16) - 1e+09 B29(16) + 1e+09 B65(2) - I267(20) + I293(19)
   >= -1.999999843e+09
 c119: - 1e+09 B5(15) - 1e+09 B33(16) - 1e+09 B66(4) + I269(18) - I297(17)
   >= -2.999999861e+09
 c120: - 1e+09 B5(15) - 1e+09 B33(16) + 1e+09 B66(4) - I269(18) + I297(17)
   >= -1.999999863e+09
 c121: - 1e+09 B4(15) - 1e+09 B31(16) - 1e+09 B66(4) + I268(18) - I295(17)
   >= -2.999999865e+09
 c122: - 1e+09 B4(15) - 1e+09 B31(16) + 1e+09 B66(4) - I268(18) + I295(17)
   >= -1.999999857e+09
 c123: - 1e+09 B3(16) - 1e+09 B35(18) - 1e+09 B67(2) + I267(20) - I299(21)
   >= -2.999999921e+09
 c124: - 1e+09 B3(16) - 1e+09 B35(18) + 1e+09 B67(2) - I267(20) + I299(21)
   >= -1.999999847e+09
 c125: - 1e+09 B6(15) - 1e+09 B13(17) - 1e+09 B73(2) + I270(18) - I277(20)
   >= -2.999999888e+09
 c126: - 1e+09 B6(15) - 1e+09 B13(17) + 1e+09 B73(2) - I270(18) + I277(20)
   >= -1.999999837e+09
 c127: - 1e+09 B7(14) - 1e+09 B14(14) - 1e+09 B74(4) + I271(18) - I278(17)
   >= -2.999999806e+09
 c128: - 1e+09 B7(14) - 1e+09 B14(14) + 1e+09 B74(4) - I271(18) + I278(17)
   >= -1.999999827e+09
 c129: - 1e+09 B8(8) - 1e+09 B16(8) - 1e+09 B74(4) + I272(12) - I280(11)
   >= -2.999999837e+09
 c130: - 1e+09 B8(8) - 1e+09 B16(8) + 1e+09 B74(4) - I272(12) + I280(11)
   >= -1.999999787e+09
 c131: - 1e+09 B6(15) - 1e+09 B21(16) - 1e+09 B76(4) + I270(18) - I285(18)
   >= -2.99999988e+09
 c132: - 1e+09 B6(15) - 1e+09 B21(16) + 1e+09 B76(4) - I270(18) + I285(18)
   >= -1.999999837e+09
 c133: - 1e+09 B8(8) - 1e+09 B19(10) - 1e+09 B76(4) + I272(12) - I283(12)
   >= -2.999999843e+09
 c134: - 1e+09 B8(8) - 1e+09 B19(10) + 1e+09 B76(4) - I272(12) + I283(12)
   >= -1.999999786e+09
 c135: - 1e+09 B6(15) - 1e+09 B22(15) - 1e+09 B77(4) + I270(18) - I286(18)
   >= -2.999999794e+09
 c136: - 1e+09 B6(15) - 1e+09 B22(15) + 1e+09 B77(4) - I270(18) + I286(18)
   >= -1.999999838e+09
 c137: - 1e+09 B7(14) - 1e+09 B23(14) - 1e+09 B77(4) + I271(18) - I287(18)
   >= -2.99999989e+09
 c138: - 1e+09 B7(14) - 1e+09 B23(14) + 1e+09 B77(4) - I271(18) + I287(18)
   >= -1.999999826e+09
 c139: - 1e+09 B7(14) - 1e+09 B28(15) - 1e+09 B79(2) + I271(18) - I292(17)
   >= -2.999999813e+09
 c140: - 1e+09 B7(14) - 1e+09 B28(15) + 1e+09 B79(2) - I271(18) + I292(17)
   >= -1.999999827e+09
 c141: - 1e+09 B6(15) - 1e+09 B29(16) - 1e+09 B80(2) + I270(18) - I293(19)
   >= -2.99999984e+09
 c142: - 1e+09 B6(15) - 1e+09 B29(16) + 1e+09 B80(2) - I270(18) + I293(19)
   >= -1.999999837e+09
 c143: - 1e+09 B6(15) - 1e+09 B35(18) - 1e+09 B82(4) + I270(18) - I299(21)
   >= -2.999999921e+09
 c144: - 1e+09 B6(15) - 1e+09 B35(18) + 1e+09 B82(4) - I270(18) + I299(21)
   >= -1.999999836e+09
 c145: - 1e+09 B7(14) - 1e+09 B36(14) - 1e+09 B82(4) + I271(18) - I300(17)
   >= -2.99999994e+09
 c146: - 1e+09 B7(14) - 1e+09 B36(14) + 1e+09 B82(4) - I271(18) + I300(17)
   >= -1.999999825e+09
 c147: - 1e+09 B7(14) - 1e+09 B37(13) - 1e+09 B83(2) + I271(18) - I301(16)
   >= -2.999999875e+09
 c148: - 1e+09 B7(14) - 1e+09 B37(13) + 1e+09 B83(2) - I271(18) + I301(16)
   >= -1.999999827e+09
 c149: - 1e+09 B9(16) - 1e+09 B17(15) - 1e+09 B90(2) + I273(17) - I281(16)
   >= -2.9999999e+09
 c150: - 1e+09 B9(16) - 1e+09 B17(15) + 1e+09 B90(2) - I273(17) + I281(16)
   >= -1.999999773e+09
 c151: - 1e+09 B10(16) - 1e+09 B20(18) - 1e+09 B91(2) + I274(17) - I284(20)
   >= -2.999999806e+09
 c152: - 1e+09 B10(16) - 1e+09 B20(18) + 1e+09 B91(2) - I274(17) + I284(20)
   >= -1.999999841e+09
 c153: - 1e+09 B9(16) - 1e+09 B25(15) - 1e+09 B93(2) + I273(17) - I289(16)
   >= -2.999999897e+09
 c154: - 1e+09 B9(16) - 1e+09 B25(15) + 1e+09 B93(2) - I273(17) + I289(16)
   >= -1.999999772e+09
 c155: - 1e+09 B10(16) - 1e+09 B27(17) - 1e+09 B94(2) + I274(17) - I291(19)
   >= -2.999999734e+09
 c156: - 1e+09 B10(16) - 1e+09 B27(17) + 1e+09 B94(2) - I274(17) + I291(19)
   >= -1.999999834e+09
 c157: - 1e+09 B9(16) - 1e+09 B33(16) - 1e+09 B96(4) + I273(17) - I297(17)
   >= -2.999999863e+09
 c158: - 1e+09 B9(16) - 1e+09 B33(16) + 1e+09 B96(4) - I273(17) + I297(17)
   >= -1.999999773e+09
 c159: - 1e+09 B10(16) - 1e+09 B32(16) - 1e+09 B96(4) + I274(17) - I296(17)
   >= -2.999999842e+09
 c160: - 1e+09 B10(16) - 1e+09 B32(16) + 1e+09 B96(4) - I274(17) + I296(17)
   >= -1.999999838e+09
 c161: - 1e+09 B10(16) - 1e+09 B34(17) - 1e+09 B97(2) + I274(17) - I298(19)
   >= -2.999999903e+09
 c162: - 1e+09 B10(16) - 1e+09 B34(17) + 1e+09 B97(2) - I274(17) + I298(19)
   >= -1.999999838e+09
 c163: - 1e+09 B12(15) - 1e+09 B18(15) - 1e+09 B105(2) + I276(18)
   - I282(16) >= -2.999999926e+09
 c164: - 1e+09 B12(15) - 1e+09 B18(15) + 1e+09 B105(2) - I276(18)
   + I282(16) >= -1.999999918e+09
 c165: - 1e+09 B11(16) - 1e+09 B20(18) - 1e+09 B106(4) + I275(18)
   - I284(20) >= -2.999999807e+09
 c166: - 1e+09 B11(16) - 1e+09 B20(18) + 1e+09 B106(4) - I275(18)
   + I284(20) >= -1.999999898e+09
 c167: - 1e+09 B13(17) - 1e+09 B21(16) - 1e+09 B106(4) + I277(20)
   - I285(18) >= -2.999999881e+09
 c168: - 1e+09 B13(17) - 1e+09 B21(16) + 1e+09 B106(4) - I277(20)
   + I285(18) >= -1.999999891e+09
 c169: - 1e+09 B13(17) - 1e+09 B22(15) - 1e+09 B107(2) + I277(20)
   - I286(18) >= -2.999999799e+09
 c170: - 1e+09 B13(17) - 1e+09 B22(15) + 1e+09 B107(2) - I277(20)
   + I286(18) >= -1.999999888e+09
 c171: - 1e+09 B12(15) - 1e+09 B26(15) - 1e+09 B108(2) + I276(18)
   - I290(16) >= -2.999999922e+09
 c172: - 1e+09 B12(15) - 1e+09 B26(15) + 1e+09 B108(2) - I276(18)
   + I290(16) >= -1.99999992e+09
 c173: - 1e+09 B11(16) - 1e+09 B27(17) - 1e+09 B109(2) + I275(18)
   - I291(19) >= -2.999999733e+09
 c174: - 1e+09 B11(16) - 1e+09 B27(17) + 1e+09 B109(2) - I275(18)
   + I291(19) >= -1.9999999e+09
 c175: - 1e+09 B13(17) - 1e+09 B29(16) - 1e+09 B110(2) + I277(20)
   - I293(19) >= -2.999999844e+09
 c176: - 1e+09 B13(17) - 1e+09 B29(16) + 1e+09 B110(2) - I277(20)
   + I293(19) >= -1.999999884e+09
 c177: - 1e+09 B12(15) - 1e+09 B31(16) - 1e+09 B111(4) + I276(18)
   - I295(17) >= -2.999999864e+09
 c178: - 1e+09 B12(15) - 1e+09 B31(16) + 1e+09 B111(4) - I276(18)
   + I295(17) >= -1.999999919e+09
 c179: - 1e+09 B11(16) - 1e+09 B32(16) - 1e+09 B111(4) + I275(18)
   - I296(17) >= -2.999999845e+09
 c180: - 1e+09 B11(16) - 1e+09 B32(16) + 1e+09 B111(4) - I275(18)
   + I296(17) >= -1.999999896e+09
 c181: - 1e+09 B11(16) - 1e+09 B34(17) - 1e+09 B112(4) + I275(18)
   - I298(19) >= -2.999999904e+09
 c182: - 1e+09 B11(16) - 1e+09 B34(17) + 1e+09 B112(4) - I275(18)
   + I298(19) >= -1.9999999e+09
 c183: - 1e+09 B13(17) - 1e+09 B35(18) - 1e+09 B112(4) + I277(20)
   - I299(21) >= -2.99999992e+09
 c184: - 1e+09 B13(17) - 1e+09 B35(18) + 1e+09 B112(4) - I277(20)
   + I299(21) >= -1.999999887e+09
 c185: - 1e+09 B16(8) - 1e+09 B19(10) - 1e+09 B121(2) + I280(11) - I283(12)
   >= -2.999999846e+09
 c186: - 1e+09 B16(8) - 1e+09 B19(10) + 1e+09 B121(2) - I280(11) + I283(12)
   >= -1.999999835e+09
 c187: - 1e+09 B14(14) - 1e+09 B23(14) - 1e+09 B122(4) + I278(17)
   - I287(18) >= -2.999999883e+09
 c188: - 1e+09 B14(14) - 1e+09 B23(14) + 1e+09 B122(4) - I278(17)
   + I287(18) >= -1.999999807e+09
 c189: - 1e+09 B15(10) - 1e+09 B24(10) - 1e+09 B122(4) + I279(13)
   - I288(14) >= -2.999999834e+09
 c190: - 1e+09 B15(10) - 1e+09 B24(10) + 1e+09 B122(4) - I279(13)
   + I288(14) >= -1.999999893e+09
 c191: - 1e+09 B14(14) - 1e+09 B28(15) - 1e+09 B124(2) + I278(17)
   - I292(17) >= -2.999999812e+09
 c192: - 1e+09 B14(14) - 1e+09 B28(15) + 1e+09 B124(2) - I278(17)
   + I292(17) >= -1.999999808e+09
 c193: - 1e+09 B15(10) - 1e+09 B30(10) - 1e+09 B125(2) + I279(13)
   - I294(13) >= -2.999999851e+09
 c194: - 1e+09 B15(10) - 1e+09 B30(10) + 1e+09 B125(2) - I279(13)
   + I294(13) >= -1.999999893e+09
 c195: - 1e+09 B14(14) - 1e+09 B36(14) - 1e+09 B127(2) + I278(17)
   - I300(17) >= -2.999999939e+09
 c196: - 1e+09 B14(14) - 1e+09 B36(14) + 1e+09 B127(2) - I278(17)
   + I300(17) >= -1.99999981e+09
 c197: - 1e+09 B14(14) - 1e+09 B37(13) - 1e+09 B128(4) + I278(17)
   - I301(16) >= -2.999999875e+09
 c198: - 1e+09 B14(14) - 1e+09 B37(13) + 1e+09 B128(4) - I278(17)
   + I301(16) >= -1.999999809e+09
 c199: - 1e+09 B15(10) - 1e+09 B38(10) - 1e+09 B128(4) + I279(13)
   - I302(14) >= -2.999999903e+09
 c200: - 1e+09 B15(10) - 1e+09 B38(10) + 1e+09 B128(4) - I279(13)
   + I302(14) >= -1.999999894e+09
 c201: - 1e+09 B17(15) - 1e+09 B25(15) - 1e+09 B138(4) + I281(16)
   - I289(16) >= -2.999999901e+09
 c202: - 1e+09 B17(15) - 1e+09 B25(15) + 1e+09 B138(4) - I281(16)
   + I289(16) >= -1.999999901e+09
 c203: - 1e+09 B18(15) - 1e+09 B26(15) - 1e+09 B138(4) + I282(16)
   - I290(16) >= -2.999999924e+09
 c204: - 1e+09 B18(15) - 1e+09 B26(15) + 1e+09 B138(4) - I282(16)
   + I290(16) >= -1.999999922e+09
 c205: - 1e+09 B17(15) - 1e+09 B33(16) - 1e+09 B141(4) + I281(16)
   - I297(17) >= -2.99999986e+09
 c206: - 1e+09 B17(15) - 1e+09 B33(16) + 1e+09 B141(4) - I281(16)
   + I297(17) >= -1.999999903e+09
 c207: - 1e+09 B18(15) - 1e+09 B31(16) - 1e+09 B141(4) + I282(16)
   - I295(17) >= -2.999999865e+09
 c208: - 1e+09 B18(15) - 1e+09 B31(16) + 1e+09 B141(4) - I282(16)
   + I295(17) >= -1.999999927e+09
 c209: - 1e+09 B20(18) - 1e+09 B27(17) - 1e+09 B154(2) + I284(20)
   - I291(19) >= -2.999999734e+09
 c210: - 1e+09 B20(18) - 1e+09 B27(17) + 1e+09 B154(2) - I284(20)
   + I291(19) >= -1.999999811e+09
 c211: - 1e+09 B21(16) - 1e+09 B29(16) - 1e+09 B155(2) + I285(18)
   - I293(19) >= -2.999999841e+09
 c212: - 1e+09 B21(16) - 1e+09 B29(16) + 1e+09 B155(2) - I285(18)
   + I293(19) >= -1.999999878e+09
 c213: - 1e+09 B20(18) - 1e+09 B32(16) - 1e+09 B156(2) + I284(20)
   - I296(17) >= -2.999999844e+09
 c214: - 1e+09 B20(18) - 1e+09 B32(16) + 1e+09 B156(2) - I284(20)
   + I296(17) >= -1.999999807e+09
 c215: - 1e+09 B20(18) - 1e+09 B34(17) - 1e+09 B157(4) + I284(20)
   - I298(19) >= -2.999999899e+09
 c216: - 1e+09 B20(18) - 1e+09 B34(17) + 1e+09 B157(4) - I284(20)
   + I298(19) >= -1.999999808e+09
 c217: - 1e+09 B21(16) - 1e+09 B35(18) - 1e+09 B157(4) + I285(18)
   - I299(21) >= -2.999999925e+09
 c218: - 1e+09 B21(16) - 1e+09 B35(18) + 1e+09 B157(4) - I285(18)
   + I299(21) >= -1.999999885e+09
 c219: - 1e+09 B23(14) - 1e+09 B28(15) - 1e+09 B169(2) + I287(18)
   - I292(17) >= -2.999999811e+09
 c220: - 1e+09 B23(14) - 1e+09 B28(15) + 1e+09 B169(2) - I287(18)
   + I292(17) >= -1.999999888e+09
 c221: - 1e+09 B22(15) - 1e+09 B29(16) - 1e+09 B170(4) + I286(18)
   - I293(19) >= -2.999999842e+09
 c222: - 1e+09 B22(15) - 1e+09 B29(16) + 1e+09 B170(4) - I286(18)
   + I293(19) >= -1.999999797e+09
 c223: - 1e+09 B24(10) - 1e+09 B30(10) - 1e+09 B170(4) + I288(14)
   - I294(13) >= -2.999999851e+09
 c224: - 1e+09 B24(10) - 1e+09 B30(10) + 1e+09 B170(4) - I288(14)
   + I294(13) >= -1.999999834e+09
 c225: - 1e+09 B22(15) - 1e+09 B35(18) - 1e+09 B172(4) + I286(18)
   - I299(21) >= -2.999999923e+09
 c226: - 1e+09 B22(15) - 1e+09 B35(18) + 1e+09 B172(4) - I286(18)
   + I299(21) >= -1.999999798e+09
 c227: - 1e+09 B23(14) - 1e+09 B36(14) - 1e+09 B172(4) + I287(18)
   - I300(17) >= -2.999999939e+09
 c228: - 1e+09 B23(14) - 1e+09 B36(14) + 1e+09 B172(4) - I287(18)
   + I300(17) >= -1.999999886e+09
 c229: - 1e+09 B23(14) - 1e+09 B37(13) - 1e+09 B173(4) + I287(18)
   - I301(16) >= -2.99999988e+09
 c230: - 1e+09 B23(14) - 1e+09 B37(13) + 1e+09 B173(4) - I287(18)
   + I301(16) >= -1.999999888e+09
 c231: - 1e+09 B24(10) - 1e+09 B38(10) - 1e+09 B173(4) + I288(14)
   - I302(14) >= -2.999999903e+09
 c232: - 1e+09 B24(10) - 1e+09 B38(10) + 1e+09 B173(4) - I288(14)
   + I302(14) >= -1.999999836e+09
 c233: - 1e+09 B25(15) - 1e+09 B33(16) - 1e+09 B186(4) + I289(16)
   - I297(17) >= -2.999999856e+09
 c234: - 1e+09 B25(15) - 1e+09 B33(16) + 1e+09 B186(4) - I289(16)
   + I297(17) >= -1.999999899e+09
 c235: - 1e+09 B26(15) - 1e+09 B31(16) - 1e+09 B186(4) + I290(16)
   - I295(17) >= -2.999999861e+09
 c236: - 1e+09 B26(15) - 1e+09 B31(16) + 1e+09 B186(4) - I290(16)
   + I295(17) >= -1.999999923e+09
 c237: - 1e+09 B27(17) - 1e+09 B32(16) - 1e+09 B201(2) + I291(19)
   - I296(17) >= -2.999999842e+09
 c238: - 1e+09 B27(17) - 1e+09 B32(16) + 1e+09 B201(2) - I291(19)
   + I296(17) >= -1.99999974e+09
 c239: - 1e+09 B27(17) - 1e+09 B34(17) - 1e+09 B202(4) + I291(19)
   - I298(19) >= -2.999999904e+09
 c240: - 1e+09 B27(17) - 1e+09 B34(17) + 1e+09 B202(4) - I291(19)
   + I298(19) >= -1.999999739e+09
 c241: - 1e+09 B28(15) - 1e+09 B36(14) - 1e+09 B202(4) + I292(17)
   - I300(17) >= -2.999999942e+09
 c242: - 1e+09 B28(15) - 1e+09 B36(14) + 1e+09 B202(4) - I292(17)
   + I300(17) >= -1.999999813e+09
 c243: - 1e+09 B28(15) - 1e+09 B37(13) - 1e+09 B203(2) + I292(17)
   - I301(16) >= -2.99999988e+09
 c244: - 1e+09 B28(15) - 1e+09 B37(13) + 1e+09 B203(2) - I292(17)
   + I301(16) >= -1.999999815e+09
 c245: - 1e+09 B29(16) - 1e+09 B35(18) - 1e+09 B217(2) + I293(19)
   - I299(21) >= -2.999999923e+09
 c246: - 1e+09 B29(16) - 1e+09 B35(18) + 1e+09 B217(2) - I293(19)
   + I299(21) >= -1.99999984e+09
 c247: - 1e+09 B30(10) - 1e+09 B38(10) - 1e+09 B218(2) + I294(13)
   - I302(14) >= -2.999999904e+09
 c248: - 1e+09 B30(10) - 1e+09 B38(10) + 1e+09 B218(2) - I294(13)
   + I302(14) >= -1.999999851e+09
 c249: I264(16) >= 0
 c250: I264(16) >= 0
 c251: I265(16) >= 0
 c252: I265(16) >= 0
 c253: I266(20) >= 0
 c254: I266(20) >= 0
 c255: I267(20) >= 0
 c256: I267(20) >= 0
 c257: I268(18) >= 0
 c258: I268(18) >= 0
 c259: I269(18) >= 0
 c260: I269(18) >= 0
 c261: I270(18) >= 0
 c262: I270(18) >= 0
 c263: I271(18) >= 0
 c264: I271(18) >= 0
 c265: I272(12) >= 0
 c266: I272(12) >= 0
 c267: I273(17) >= 0
 c268: I273(17) >= 0
 c269: I274(17) >= 0
 c270: I274(17) >= 0
 c271: I275(18) >= 0
 c272: I275(18) >= 0
 c273: I276(18) >= 0
 c274: I276(18) >= 0
 c275: I277(20) >= 0
 c276: I277(20) >= 0
 c277: I278(17) >= 0
 c278: I278(17) >= 0
 c279: I279(13) >= 0
 c280: I279(13) >= 0
 c281: I280(11) >= 0
 c282: I280(11) >= 0
 c283: I281(16) >= 0
 c284: I281(16) >= 0
 c285: I282(16) >= 0
 c286: I282(16) >= 0
 c287: I283(12) >= 0
 c288: I283(12) >= 0
 c289: I284(20) >= 0
 c290: I284(20) >= 0
 c291: I285(18) >= 0
 c292: I285(18) >= 0
 c293: I286(18) >= 0
 c294: I286(18) >= 0
 c295: I287(18) >= 0
 c296: I287(18) >= 0
 c297: I288(14) >= 0
 c298: I288(14) >= 0
 c299: I289(16) >= 0
 c300: I289(16) >= 0
 c301: I290(16) >= 0
 c302: I290(16) >= 0
 c303: I291(19) >= 0
 c304: I291(19) >= 0
 c305: I292(17) >= 0
 c306: I292(17) >= 0
 c307: I293(19) >= 0
 c308: I293(19) >= 0
 c309: I294(13) >= 0
 c310: I294(13) >= 0
 c311: I295(17) >= 0
 c312: I295(17) >= 0
 c313: I296(17) >= 0
 c314: I296(17) >= 0
 c315: I297(17) >= 0
 c316: I297(17) >= 0
 c317: I298(19) >= 0
 c318: I298(19) >= 0
 c319: I299(21) >= 0
 c320: I299(21) >= 0
 c321: I300(17) >= 0
 c322: I300(17) >= 0
 c323: I301(16) >= 0
 c324: I301(16) >= 0
 c325: I302(14) >= 0
 c326: I302(14) >= 0
 c327: 147 B0(15) + I264(16) - 1e+09 B304(2) >= -9.99999892e+08
 c328: 147 B0(15) + I264(16) - 1e+09 B304(2) <= 108
 c329: 123 B1(15) + I265(16) - 1e+09 B305(2) >= -9.99999892e+08
 c330: 123 B1(15) + I265(16) - 1e+09 B305(2) <= 108
 c331: 145 B2(19) + I266(20) - 1e+09 B306(2) >= -9.99999892e+08
 c332: 145 B2(19) + I266(20) - 1e+09 B306(2) <= 108
 c333: 140 B3(16) + I267(20) - 1e+09 B307(2) >= -9.99999892e+08
 c334: 140 B3(16) + I267(20) - 1e+09 B307(2) <= 108
 c335: 130 B4(15) + I268(18) - 1e+09 B308(2) >= -9.99999892e+08
 c336: 130 B4(15) + I268(18) - 1e+09 B308(2) <= 108
 c337: 123 B5(15) + I269(18) - 1e+09 B309(2) >= -9.99999892e+08
 c338: 123 B5(15) + I269(18) - 1e+09 B309(2) <= 108
 c339: 150 B6(15) + I270(18) - 1e+09 B310(4) >= -9.99999892e+08
 c340: 150 B6(15) + I270(18) - 1e+09 B310(4) <= 108
 c341: 160 B7(14) + I271(18) - 1e+09 B311(4) >= -9.99999892e+08
 c342: 160 B7(14) + I271(18) - 1e+09 B311(4) <= 108
 c343: 200 B8(8) + I272(12) - 1e+09 B312(4) >= -9.99999892e+08
 c344: 200 B8(8) + I272(12) - 1e+09 B312(4) <= 108
 c345: 214 B9(16) + I273(17) - 1e+09 B313(2) >= -9.99999903e+08
 c346: 214 B9(16) + I273(17) - 1e+09 B313(2) <= 97
 c347: 150 B10(16) + I274(17) - 1e+09 B314(2) >= -9.99999903e+08
 c348: 150 B10(16) + I274(17) - 1e+09 B314(2) <= 97
 c349: 87 B11(16) + I275(18) - 1e+09 B315(2) >= -9.99999903e+08
 c350: 87 B11(16) + I275(18) - 1e+09 B315(2) <= 97
 c351: 66 B12(15) + I276(18) - 1e+09 B316(2) >= -9.99999903e+08
 c352: 66 B12(15) + I276(18) - 1e+09 B316(2) <= 97
 c353: 99 B13(17) + I277(20) - 1e+09 B317(2) >= -9.99999903e+08
 c354: 99 B13(17) + I277(20) - 1e+09 B317(2) <= 97
 c355: 178 B14(14) + I278(17) - 1e+09 B318(4) >= -9.99999903e+08
 c356: 178 B14(14) + I278(17) - 1e+09 B318(4) <= 97
 c357: 95 B15(10) + I279(13) - 1e+09 B319(4) >= -9.99999903e+08
 c358: 95 B15(10) + I279(13) - 1e+09 B319(4) <= 97
 c359: 150 B16(8) + I280(11) - 1e+09 B320(4) >= -9.99999903e+08
 c360: 150 B16(8) + I280(11) - 1e+09 B320(4) <= 97
 c361: 87 B17(15) + I281(16) - 1e+09 B321(2) >= -9.99999946e+08
 c362: 87 B17(15) + I281(16) - 1e+09 B321(2) <= 54
 c363: 62 B18(15) + I282(16) - 1e+09 B322(2) >= -9.99999946e+08
 c364: 62 B18(15) + I282(16) - 1e+09 B322(2) <= 54
 c365: 145 B19(10) + I283(12) - 1e+09 B323(2) >= -9.99999946e+08
 c366: 145 B19(10) + I283(12) - 1e+09 B323(2) <= 54
 c367: 180 B20(18) + I284(20) - 1e+09 B324(2) >= -9.99999946e+08
 c368: 180 B20(18) + I284(20) - 1e+09 B324(2) <= 54
 c369: 105 B21(16) + I285(18) - 1e+09 B325(2) >= -9.99999946e+08
 c370: 105 B21(16) + I285(18) - 1e+09 B325(2) <= 54
 c371: 190 B22(15) + I286(18) - 1e+09 B326(4) >= -9.99999946e+08
 c372: 190 B22(15) + I286(18) - 1e+09 B326(4) <= 54
 c373: 100 B23(14) + I287(18) - 1e+09 B327(4) >= -9.99999946e+08
 c374: 100 B23(14) + I287(18) - 1e+09 B327(4) <= 54
 c375: 153 B24(10) + I288(14) - 1e+09 B328(4) >= -9.99999946e+08
 c376: 153 B24(10) + I288(14) - 1e+09 B328(4) <= 54
 c377: 87 B25(15) + I289(16) - 1e+09 B329(2) >= -9.99999967e+08
 c378: 87 B25(15) + I289(16) - 1e+09 B329(2) <= 33
 c379: 65 B26(15) + I290(16) - 1e+09 B330(2) >= -9.99999967e+08
 c380: 65 B26(15) + I290(16) - 1e+09 B330(2) <= 33
 c381: 250 B27(17) + I291(19) - 1e+09 B331(2) >= -9.99999967e+08
 c382: 250 B27(17) + I291(19) - 1e+09 B331(2) <= 33
 c383: 173 B28(15) + I292(17) - 1e+09 B332(2) >= -9.99999967e+08
 c384: 173 B28(15) + I292(17) - 1e+09 B332(2) <= 33
 c385: 145 B29(16) + I293(19) - 1e+09 B333(4) >= -9.99999967e+08
 c386: 145 B29(16) + I293(19) - 1e+09 B333(4) <= 33
 c387: 136 B30(10) + I294(13) - 1e+09 B334(4) >= -9.99999967e+08
 c388: 136 B30(10) + I294(13) - 1e+09 B334(4) <= 33
 c389: 123 B31(16) + I295(17) - 1e+09 B335(2) >= -9.99999935e+08
 c390: 123 B31(16) + I295(17) - 1e+09 B335(2) <= 65
 c391: 145 B32(16) + I296(17) - 1e+09 B336(2) >= -9.99999935e+08
 c392: 145 B32(16) + I296(17) - 1e+09 B336(2) <= 65
 c393: 128 B33(16) + I297(17) - 1e+09 B337(2) >= -9.99999935e+08
 c394: 128 B33(16) + I297(17) - 1e+09 B337(2) <= 65
 c395: 86 B34(17) + I298(19) - 1e+09 B338(2) >= -9.99999935e+08
 c396: 86 B34(17) + I298(19) - 1e+09 B338(2) <= 65
 c397: 65 B35(18) + I299(21) - 1e+09 B339(2) >= -9.99999935e+08
 c398: 65 B35(18) + I299(21) - 1e+09 B339(2) <= 65
 c399: 47 B36(14) + I300(17) - 1e+09 B340(2) >= -9.99999935e+08
 c400: 47 B36(14) + I300(17) - 1e+09 B340(2) <= 65
 c401: 110 B37(13) + I301(16) - 1e+09 B341(4) >= -9.99999935e+08
 c402: 110 B37(13) + I301(16) - 1e+09 B341(4) <= 65
 c403: 85 B38(10) + I302(14) - 1e+09 B342(4) >= -9.99999935e+08
 c404: 85 B38(10) + I302(14) - 1e+09 B342(4) <= 65
 qc0: I303(1) - 42 B310(4) - 52 B311(4) - 92 B312(4) - 81 B318(4)
   + 2 B319(4) - 53 B320(4) - 136 B326(4) - 46 B327(4) - 99 B328(4)
   - 112 B333(4) - 103 B334(4) - 45 B341(4) - 20 B342(4) + [
   - I270(18) * B310(4) - I271(18) * B311(4) - I272(12) * B312(4)
   - I278(17) * B318(4) - I279(13) * B319(4) - I280(11) * B320(4)
   - I286(18) * B326(4) - I287(18) * B327(4) - I288(14) * B328(4)
   - I293(19) * B333(4) - I294(13) * B334(4) - I301(16) * B341(4)
   - I302(14) * B342(4) ] >= 0
Bounds
Binaries
 B0(15) B1(15) B2(19) B3(16) B4(15) B5(15) B6(15) B7(14) B8(8) B9(16)
 B10(16) B11(16) B12(15) B13(17) B14(14) B15(10) B16(8) B17(15) B18(15)
 B19(10) B20(18) B21(16) B22(15) B23(14) B24(10) B25(15) B26(15) B27(17)
 B28(15) B29(16) B30(10) B31(16) B32(16) B33(16) B34(17) B35(18) B36(14)
 B37(13) B38(10) B39(0) B40(0) B41(0) B42(4) B43(4) B44(0) B45(4) B46(2)
 B47(0) B48(4) B49(2) B50(0) B51(6) B52(2) B53(0) B54(0) B55(0) B56(0)
 B57(2) B58(4) B59(0) B60(4) B61(2) B62(2) B63(4) B64(0) B65(2) B66(4)
 B67(2) B68(0) B69(0) B70(0) B71(0) B72(0) B73(2) B74(4) B75(0) B76(4)
 B77(4) B78(0) B79(2) B80(2) B81(0) B82(4) B83(2) B84(0) B85(0) B86(0)
 B87(0) B88(0) B89(0) B90(2) B91(2) B92(0) B93(2) B94(2) B95(0) B96(4)
 B97(2) B98(0) B99(0) B100(0) B101(0) B102(0) B103(0) B104(0) B105(2)
 B106(4) B107(2) B108(2) B109(2) B110(2) B111(4) B112(4) B113(0) B114(0)
 B115(0) B116(0) B117(0) B118(0) B119(0) B120(0) B121(2) B122(4) B123(0)
 B124(2) B125(2) B126(0) B127(2) B128(4) B129(0) B130(0) B131(0) B132(0)
 B133(0) B134(0) B135(0) B136(0) B137(0) B138(4) B139(0) B140(0) B141(4)
 B142(0) B143(0) B144(0) B145(0) B146(0) B147(0) B148(0) B149(0) B150(0)
 B151(0) B152(0) B153(0) B154(2) B155(2) B156(2) B157(4) B158(0) B159(0)
 B160(0) B161(0) B162(0) B163(0) B164(0) B165(0) B166(0) B167(0) B168(0)
 B169(2) B170(4) B171(0) B172(4) B173(4) B174(0) B175(0) B176(0) B177(0)
 B178(0) B179(0) B180(0) B181(0) B182(0) B183(0) B184(0) B185(0) B186(4)
 B187(0) B188(0) B189(0) B190(0) B191(0) B192(0) B193(0) B194(0) B195(0)
 B196(0) B197(0) B198(0) B199(0) B200(0) B201(2) B202(4) B203(2) B204(0)
 B205(0) B206(0) B207(0) B208(0) B209(0) B210(0) B211(0) B212(0) B213(0)
 B214(0) B215(0) B216(0) B217(2) B218(2) B219(0) B220(0) B221(0) B222(0)
 B223(0) B224(0) B225(0) B226(0) B227(0) B228(0) B229(0) B230(0) B231(0)
 B232(0) B233(0) B234(0) B235(0) B236(0) B237(0) B238(0) B239(0) B240(0)
 B241(0) B242(0) B243(0) B244(0) B245(0) B246(0) B247(0) B248(0) B249(0)
 B250(0) B251(0) B252(0) B253(0) B254(0) B255(0) B256(0) B257(0) B258(0)
 B259(0) B260(0) B261(0) B262(0) B263(0) B304(2) B305(2) B306(2) B307(2)
 B308(2) B309(2) B310(4) B311(4) B312(4) B313(2) B314(2) B315(2) B316(2)
 B317(2) B318(4) B319(4) B320(4) B321(2) B322(2) B323(2) B324(2) B325(2)
 B326(4) B327(4) B328(4) B329(2) B330(2) B331(2) B332(2) B333(4) B334(4)
 B335(2) B336(2) B337(2) B338(2) B339(2) B340(2) B341(4) B342(4)
Generals
 I264(16) I265(16) I266(20) I267(20) I268(18) I269(18) I270(18) I271(18)
 I272(12) I273(17) I274(17) I275(18) I276(18) I277(20) I278(17) I279(13)
 I280(11) I281(16) I282(16) I283(12) I284(20) I285(18) I286(18) I287(18)
 I288(14) I289(16) I290(16) I291(19) I292(17) I293(19) I294(13) I295(17)
 I296(17) I297(17) I298(19) I299(21) I300(17) I301(16) I302(14) I303(1)
End
